objective value:                                   -3
t_n_14                                              1 	(obj:-1)
t_n_191                                             1 	(obj:-1)
t_n_1218                                            1 	(obj:-1)
